[runlim] version:		1.10
[runlim] time limit:		311040000 seconds
[runlim] real time limit:	600 seconds
[runlim] space limit:		14000 MB
[runlim] argv[0]:		python3
[runlim] argv[1]:		-u
[runlim] argv[2]:		mip.py
[runlim] argv[3]:		TUD200.3
[runlim] start:			Sat Jan 24 19:56:24 2026
[runlim] main pid:		66719
Building MIP model...
[runlim] sample:		10.0 time, 10.0 real, 31.9 MB
Build time: 15.82s
Solving MIP (minimizing number of labels)...
Version identifier: 22.1.1.0 | 2022-11-28 | 9160aff4d
CPXPARAM_Read_DataCheck                          1
Legacy callback                                  i
Tried aggregator 2 times.
MIP Presolve eliminated 153198 rows and 95 columns.
MIP Presolve modified 19183 coefficients.
Aggregator did 3549 substitutions.
Reduced MIP has 9768 rows, 3502 columns, and 131490 nonzeros.
Reduced MIP has 3502 binaries, 0 generals, 0 SOSs, and 0 indicators.
Presolve time = 0.61 sec. (767.79 ticks)
Probing fixed 36 vars, tightened 0 bounds.
Probing changed sense of 3 constraints.
Probing time = 0.01 sec. (3.97 ticks)
Cover probing fixed 2 vars, tightened 0 bounds.
Tried aggregator 1 time.
Detecting symmetries...
MIP Presolve eliminated 141 rows and 39 columns.
MIP Presolve modified 155 coefficients.
Reduced MIP has 9627 rows, 3463 columns, and 128222 nonzeros.
Reduced MIP has 3463 binaries, 0 generals, 0 SOSs, and 0 indicators.
Presolve time = 0.10 sec. (155.99 ticks)
Probing fixed 4 vars, tightened 0 bounds.
Probing changed sense of 2 constraints.
Probing time = 0.01 sec. (4.34 ticks)
Clique table members: 13165.
MIP emphasis: balance optimality and feasibility.
MIP search method: dynamic search.
Parallel mode: deterministic, using up to 12 threads.
Root relaxation solution time = 1.05 sec. (1119.84 ticks)

        Nodes                                         Cuts/
   Node  Left     Objective  IInf  Best Integer    Best Bound    ItCnt     Gap

*     0+    0                           28.0000        2.0000            92.86%
      0     0       14.0000   428       28.0000       14.0000     7218   50.00%

========== NEW INCUMBENT SOLUTION ==========
{1: 268, 2: 30, 3: 142, 4: 380, 5: 100, 6: 338, 7: 498, 8: 736, 9: 736, 10: 498, 11: 478, 12: 240, 13: 414, 14: 652, 15: 30, 16: 268, 17: 170, 18: 408, 19: 792, 20: 554, 21: 694, 22: 456, 23: 554, 24: 792, 25: 498, 26: 736, 27: 30, 28: 268, 29: 380, 30: 142, 31: 72, 32: 310, 33: 380, 34: 142, 35: 100, 36: 338, 37: 554, 38: 792, 39: 554, 40: 792, 41: 72, 42: 310, 43: 268, 44: 30, 45: 554, 46: 792, 47: 44, 48: 282, 49: 792, 50: 554, 51: 310, 52: 72, 53: 792, 54: 554, 55: 792, 56: 554, 57: 142, 58: 380, 59: 498, 60: 736, 61: 338, 62: 100, 63: 442, 64: 680, 65: 30, 66: 268, 67: 792, 68: 554, 69: 72, 70: 310, 71: 792, 72: 554, 73: 442, 74: 680, 75: 156, 76: 394, 77: 338, 78: 100, 79: 142, 80: 380, 81: 30, 82: 268, 83: 100, 84: 338, 85: 142, 86: 380, 87: 142, 88: 380, 89: 554, 90: 792, 91: 380, 92: 142, 93: 394, 94: 156, 95: 456, 96: 694, 97: 240, 98: 478, 99: 478, 100: 240, 101: 498, 102: 736, 103: 792, 104: 554, 105: 310, 106: 72, 107: 736, 108: 498, 109: 442, 110: 680, 111: 268, 112: 30, 113: 72, 114: 310, 115: 142, 116: 380, 117: 498, 118: 736, 119: 442, 120: 680, 121: 380, 122: 142, 123: 30, 124: 268, 125: 268, 126: 30, 127: 554, 128: 792, 129: 554, 130: 792, 131: 240, 132: 478, 133: 512, 134: 750, 135: 100, 136: 338, 137: 142, 138: 380, 139: 142, 140: 380, 141: 30, 142: 268, 143: 554, 144: 792, 145: 30, 146: 268, 147: 380, 148: 142, 149: 338, 150: 100, 151: 498, 152: 736, 153: 142, 154: 380, 155: 512, 156: 750, 157: 100, 158: 338, 159: 72, 160: 310, 161: 554, 162: 792, 163: 554, 164: 792, 165: 282, 166: 44, 167: 380, 168: 142, 169: 554, 170: 792, 171: 268, 172: 30, 173: 736, 174: 498, 175: 512, 176: 750, 177: 792, 178: 554, 179: 240, 180: 478, 181: 680, 182: 442, 183: 100, 184: 338, 185: 268, 186: 30, 187: 30, 188: 268, 189: 498, 190: 736, 191: 72, 192: 310, 193: 792, 194: 554, 195: 310, 196: 72, 197: 694, 198: 456, 199: 268, 200: 30}
Number of labels used: 28
Total time: 17.88 sec
Memory: 186.45 MB
=============================================

========== NEW INCUMBENT SOLUTION ==========
{1: 268, 2: 30, 3: 142, 4: 380, 5: 100, 6: 338, 7: 498, 8: 736, 9: 736, 10: 498, 11: 478, 12: 240, 13: 414, 14: 652, 15: 30, 16: 268, 17: 170, 18: 408, 19: 792, 20: 554, 21: 694, 22: 456, 23: 554, 24: 792, 25: 498, 26: 736, 27: 30, 28: 268, 29: 380, 30: 142, 31: 72, 32: 310, 33: 380, 34: 142, 35: 100, 36: 338, 37: 554, 38: 792, 39: 554, 40: 792, 41: 72, 42: 310, 43: 268, 44: 30, 45: 554, 46: 792, 47: 44, 48: 282, 49: 792, 50: 554, 51: 310, 52: 72, 53: 792, 54: 554, 55: 792, 56: 554, 57: 142, 58: 380, 59: 498, 60: 736, 61: 338, 62: 100, 63: 442, 64: 680, 65: 30, 66: 268, 67: 792, 68: 554, 69: 72, 70: 310, 71: 792, 72: 554, 73: 442, 74: 680, 75: 156, 76: 394, 77: 338, 78: 100, 79: 142, 80: 380, 81: 30, 82: 268, 83: 100, 84: 338, 85: 142, 86: 380, 87: 142, 88: 380, 89: 554, 90: 792, 91: 380, 92: 142, 93: 394, 94: 156, 95: 456, 96: 694, 97: 240, 98: 478, 99: 478, 100: 240, 101: 498, 102: 736, 103: 792, 104: 554, 105: 310, 106: 72, 107: 736, 108: 498, 109: 442, 110: 680, 111: 268, 112: 30, 113: 72, 114: 310, 115: 142, 116: 380, 117: 498, 118: 736, 119: 442, 120: 680, 121: 380, 122: 142, 123: 30, 124: 268, 125: 268, 126: 30, 127: 554, 128: 792, 129: 554, 130: 792, 131: 240, 132: 478, 133: 512, 134: 750, 135: 100, 136: 338, 137: 142, 138: 380, 139: 142, 140: 380, 141: 30, 142: 268, 143: 554, 144: 792, 145: 30, 146: 268, 147: 380, 148: 142, 149: 338, 150: 100, 151: 498, 152: 736, 153: 142, 154: 380, 155: 512, 156: 750, 157: 100, 158: 338, 159: 72, 160: 310, 161: 554, 162: 792, 163: 554, 164: 792, 165: 282, 166: 44, 167: 380, 168: 142, 169: 554, 170: 792, 171: 268, 172: 30, 173: 736, 174: 498, 175: 512, 176: 750, 177: 792, 178: 554, 179: 240, 180: 478, 181: 680, 182: 442, 183: 100, 184: 338, 185: 268, 186: 30, 187: 30, 188: 268, 189: 498, 190: 736, 191: 72, 192: 310, 193: 792, 194: 554, 195: 310, 196: 72, 197: 694, 198: 456, 199: 268, 200: 30}
Number of labels used: 28
Total time: 17.88 sec
Memory: 186.56 MB
=============================================
[runlim] sample:		25.7 time, 20.0 real, 212.3 MB
*     0+    0                           26.0000       14.0000            46.15%

========== NEW INCUMBENT SOLUTION ==========
{1: 268, 2: 30, 3: 380, 4: 142, 5: 100, 6: 338, 7: 498, 8: 736, 9: 736, 10: 498, 11: 478, 12: 240, 13: 414, 14: 652, 15: 30, 16: 268, 17: 170, 18: 408, 19: 792, 20: 554, 21: 694, 22: 456, 23: 652, 24: 414, 25: 498, 26: 736, 27: 652, 28: 414, 29: 380, 30: 142, 31: 72, 32: 310, 33: 380, 34: 142, 35: 100, 36: 338, 37: 414, 38: 652, 39: 554, 40: 792, 41: 72, 42: 310, 43: 268, 44: 30, 45: 792, 46: 554, 47: 44, 48: 282, 49: 414, 50: 652, 51: 310, 52: 72, 53: 792, 54: 554, 55: 268, 56: 30, 57: 142, 58: 380, 59: 498, 60: 736, 61: 338, 62: 100, 63: 442, 64: 680, 65: 792, 66: 554, 67: 792, 68: 554, 69: 30, 70: 268, 71: 792, 72: 554, 73: 442, 74: 680, 75: 554, 76: 792, 77: 338, 78: 100, 79: 142, 80: 380, 81: 30, 82: 268, 83: 100, 84: 338, 85: 142, 86: 380, 87: 142, 88: 380, 89: 554, 90: 792, 91: 380, 92: 142, 93: 554, 94: 792, 95: 456, 96: 694, 97: 240, 98: 478, 99: 478, 100: 240, 101: 498, 102: 736, 103: 792, 104: 554, 105: 310, 106: 72, 107: 736, 108: 498, 109: 442, 110: 680, 111: 268, 112: 30, 113: 72, 114: 310, 115: 142, 116: 380, 117: 498, 118: 736, 119: 442, 120: 680, 121: 380, 122: 142, 123: 792, 124: 554, 125: 268, 126: 30, 127: 554, 128: 792, 129: 792, 130: 554, 131: 478, 132: 240, 133: 512, 134: 750, 135: 100, 136: 338, 137: 142, 138: 380, 139: 142, 140: 380, 141: 30, 142: 268, 143: 554, 144: 792, 145: 30, 146: 268, 147: 380, 148: 142, 149: 338, 150: 100, 151: 498, 152: 736, 153: 142, 154: 380, 155: 512, 156: 750, 157: 100, 158: 338, 159: 72, 160: 310, 161: 554, 162: 792, 163: 554, 164: 792, 165: 282, 166: 44, 167: 380, 168: 142, 169: 554, 170: 792, 171: 268, 172: 30, 173: 736, 174: 498, 175: 512, 176: 750, 177: 792, 178: 554, 179: 240, 180: 478, 181: 680, 182: 442, 183: 100, 184: 338, 185: 268, 186: 30, 187: 30, 188: 268, 189: 498, 190: 736, 191: 72, 192: 310, 193: 792, 194: 554, 195: 310, 196: 72, 197: 694, 198: 456, 199: 30, 200: 268}
Number of labels used: 26
Total time: 20.88 sec
Memory: 214.08 MB
=============================================
      0     0       14.0000   241       26.0000       Cuts: 5     7299   46.15%

========== NEW INCUMBENT SOLUTION ==========
{1: 268, 2: 30, 3: 380, 4: 142, 5: 100, 6: 338, 7: 498, 8: 736, 9: 736, 10: 498, 11: 478, 12: 240, 13: 414, 14: 652, 15: 30, 16: 268, 17: 170, 18: 408, 19: 792, 20: 554, 21: 694, 22: 456, 23: 652, 24: 414, 25: 498, 26: 736, 27: 652, 28: 414, 29: 380, 30: 142, 31: 72, 32: 310, 33: 380, 34: 142, 35: 100, 36: 338, 37: 414, 38: 652, 39: 554, 40: 792, 41: 72, 42: 310, 43: 268, 44: 30, 45: 792, 46: 554, 47: 44, 48: 282, 49: 414, 50: 652, 51: 310, 52: 72, 53: 792, 54: 554, 55: 268, 56: 30, 57: 142, 58: 380, 59: 498, 60: 736, 61: 338, 62: 100, 63: 442, 64: 680, 65: 792, 66: 554, 67: 792, 68: 554, 69: 30, 70: 268, 71: 792, 72: 554, 73: 442, 74: 680, 75: 554, 76: 792, 77: 338, 78: 100, 79: 142, 80: 380, 81: 30, 82: 268, 83: 100, 84: 338, 85: 142, 86: 380, 87: 142, 88: 380, 89: 554, 90: 792, 91: 380, 92: 142, 93: 554, 94: 792, 95: 456, 96: 694, 97: 240, 98: 478, 99: 478, 100: 240, 101: 498, 102: 736, 103: 792, 104: 554, 105: 310, 106: 72, 107: 736, 108: 498, 109: 442, 110: 680, 111: 268, 112: 30, 113: 72, 114: 310, 115: 142, 116: 380, 117: 498, 118: 736, 119: 442, 120: 680, 121: 380, 122: 142, 123: 792, 124: 554, 125: 268, 126: 30, 127: 554, 128: 792, 129: 792, 130: 554, 131: 478, 132: 240, 133: 512, 134: 750, 135: 100, 136: 338, 137: 142, 138: 380, 139: 142, 140: 380, 141: 30, 142: 268, 143: 554, 144: 792, 145: 30, 146: 268, 147: 380, 148: 142, 149: 338, 150: 100, 151: 498, 152: 736, 153: 142, 154: 380, 155: 512, 156: 750, 157: 100, 158: 338, 159: 72, 160: 310, 161: 554, 162: 792, 163: 554, 164: 792, 165: 282, 166: 44, 167: 380, 168: 142, 169: 554, 170: 792, 171: 268, 172: 30, 173: 736, 174: 498, 175: 512, 176: 750, 177: 792, 178: 554, 179: 240, 180: 478, 181: 680, 182: 442, 183: 100, 184: 338, 185: 268, 186: 30, 187: 30, 188: 268, 189: 498, 190: 736, 191: 72, 192: 310, 193: 792, 194: 554, 195: 310, 196: 72, 197: 694, 198: 456, 199: 30, 200: 268}
Number of labels used: 26
Total time: 20.89 sec
Memory: 214.08 MB
=============================================
[runlim] sample:		45.7 time, 30.1 real, 216.8 MB

========== NEW INCUMBENT SOLUTION ==========
{1: 268, 2: 30, 3: 380, 4: 142, 5: 100, 6: 338, 7: 498, 8: 736, 9: 736, 10: 498, 11: 478, 12: 240, 13: 414, 14: 652, 15: 30, 16: 268, 17: 170, 18: 408, 19: 792, 20: 554, 21: 694, 22: 456, 23: 652, 24: 414, 25: 498, 26: 736, 27: 652, 28: 414, 29: 380, 30: 142, 31: 72, 32: 310, 33: 380, 34: 142, 35: 100, 36: 338, 37: 414, 38: 652, 39: 554, 40: 792, 41: 72, 42: 310, 43: 268, 44: 30, 45: 792, 46: 554, 47: 44, 48: 282, 49: 414, 50: 652, 51: 310, 52: 72, 53: 792, 54: 554, 55: 268, 56: 30, 57: 142, 58: 380, 59: 498, 60: 736, 61: 338, 62: 100, 63: 442, 64: 680, 65: 792, 66: 554, 67: 792, 68: 554, 69: 30, 70: 268, 71: 792, 72: 554, 73: 442, 74: 680, 75: 554, 76: 792, 77: 338, 78: 100, 79: 142, 80: 380, 81: 30, 82: 268, 83: 100, 84: 338, 85: 142, 86: 380, 87: 142, 88: 380, 89: 554, 90: 792, 91: 380, 92: 142, 93: 554, 94: 792, 95: 456, 96: 694, 97: 240, 98: 478, 99: 478, 100: 240, 101: 498, 102: 736, 103: 792, 104: 554, 105: 310, 106: 72, 107: 736, 108: 498, 109: 442, 110: 680, 111: 268, 112: 30, 113: 72, 114: 310, 115: 142, 116: 380, 117: 498, 118: 736, 119: 442, 120: 680, 121: 380, 122: 142, 123: 792, 124: 554, 125: 268, 126: 30, 127: 554, 128: 792, 129: 792, 130: 554, 131: 478, 132: 240, 133: 512, 134: 750, 135: 100, 136: 338, 137: 142, 138: 380, 139: 142, 140: 380, 141: 30, 142: 268, 143: 554, 144: 792, 145: 30, 146: 268, 147: 380, 148: 142, 149: 338, 150: 100, 151: 498, 152: 736, 153: 142, 154: 380, 155: 512, 156: 750, 157: 100, 158: 338, 159: 72, 160: 310, 161: 554, 162: 792, 163: 554, 164: 792, 165: 282, 166: 44, 167: 380, 168: 142, 169: 554, 170: 792, 171: 268, 172: 30, 173: 736, 174: 498, 175: 512, 176: 750, 177: 792, 178: 554, 179: 240, 180: 478, 181: 680, 182: 442, 183: 100, 184: 338, 185: 268, 186: 30, 187: 30, 188: 268, 189: 498, 190: 736, 191: 72, 192: 310, 193: 792, 194: 554, 195: 310, 196: 72, 197: 694, 198: 456, 199: 30, 200: 268}
Number of labels used: 26
Total time: 37.14 sec
Memory: 218.23 MB
=============================================
      0     0       14.0000   728       26.0000     Cuts: 364    36207   46.15%

========== NEW INCUMBENT SOLUTION ==========
{1: 268, 2: 30, 3: 380, 4: 142, 5: 100, 6: 338, 7: 498, 8: 736, 9: 736, 10: 498, 11: 478, 12: 240, 13: 414, 14: 652, 15: 30, 16: 268, 17: 170, 18: 408, 19: 792, 20: 554, 21: 694, 22: 456, 23: 652, 24: 414, 25: 498, 26: 736, 27: 652, 28: 414, 29: 380, 30: 142, 31: 72, 32: 310, 33: 380, 34: 142, 35: 100, 36: 338, 37: 414, 38: 652, 39: 554, 40: 792, 41: 72, 42: 310, 43: 268, 44: 30, 45: 792, 46: 554, 47: 44, 48: 282, 49: 414, 50: 652, 51: 310, 52: 72, 53: 792, 54: 554, 55: 268, 56: 30, 57: 142, 58: 380, 59: 498, 60: 736, 61: 338, 62: 100, 63: 442, 64: 680, 65: 792, 66: 554, 67: 792, 68: 554, 69: 30, 70: 268, 71: 792, 72: 554, 73: 442, 74: 680, 75: 554, 76: 792, 77: 338, 78: 100, 79: 142, 80: 380, 81: 30, 82: 268, 83: 100, 84: 338, 85: 142, 86: 380, 87: 142, 88: 380, 89: 554, 90: 792, 91: 380, 92: 142, 93: 554, 94: 792, 95: 456, 96: 694, 97: 240, 98: 478, 99: 478, 100: 240, 101: 498, 102: 736, 103: 792, 104: 554, 105: 310, 106: 72, 107: 736, 108: 498, 109: 442, 110: 680, 111: 268, 112: 30, 113: 72, 114: 310, 115: 142, 116: 380, 117: 498, 118: 736, 119: 442, 120: 680, 121: 380, 122: 142, 123: 792, 124: 554, 125: 268, 126: 30, 127: 554, 128: 792, 129: 792, 130: 554, 131: 478, 132: 240, 133: 512, 134: 750, 135: 100, 136: 338, 137: 142, 138: 380, 139: 142, 140: 380, 141: 30, 142: 268, 143: 554, 144: 792, 145: 30, 146: 268, 147: 380, 148: 142, 149: 338, 150: 100, 151: 498, 152: 736, 153: 142, 154: 380, 155: 512, 156: 750, 157: 100, 158: 338, 159: 72, 160: 310, 161: 554, 162: 792, 163: 554, 164: 792, 165: 282, 166: 44, 167: 380, 168: 142, 169: 554, 170: 792, 171: 268, 172: 30, 173: 736, 174: 498, 175: 512, 176: 750, 177: 792, 178: 554, 179: 240, 180: 478, 181: 680, 182: 442, 183: 100, 184: 338, 185: 268, 186: 30, 187: 30, 188: 268, 189: 498, 190: 736, 191: 72, 192: 310, 193: 792, 194: 554, 195: 310, 196: 72, 197: 694, 198: 456, 199: 30, 200: 268}
Number of labels used: 26
Total time: 37.15 sec
Memory: 218.23 MB
=============================================
[runlim] sample:		65.7 time, 40.0 real, 225.8 MB
*     0+    0                           14.0000       14.0000             0.00%
      0     0        cutoff             14.0000       14.0000    36207    0.00%
Elapsed time = 24.87 sec. (35113.13 ticks, tree = 0.01 MB, solutions = 3)

Clique cuts applied:  37
Zero-half cuts applied:  4

Root node processing (before b&c):
  Real time             =   24.87 sec. (35113.87 ticks)
Parallel b&c, 12 threads:
  Real time             =    0.00 sec. (0.00 ticks)
  Sync time (average)   =    0.00 sec.
  Wait time (average)   =    0.00 sec.
                          ------------
Total (root+branch&cut) =   24.87 sec. (35113.87 ticks)
Solution :
{428, 666, 380, 142, 72, 310, 736, 498, 498, 736, 478, 240, 736, 498, 736, 498, 142, 380, 540, 778, 666, 428, 778, 540, 380, 142, 30, 268, 310, 72, 268, 30, 142, 380, 778, 540, 736, 498, 666, 428, 72, 310, 72, 310, 268, 30, 380, 142, 736, 498, 666, 428, 72, 310, 30, 268, 142, 380, 736, 498, 268, 30, 498, 736, 142, 380, 778, 540, 310, 72, 540, 778, 498, 736, 540, 778, 142, 380, 142, 380, 30, 268, 310, 72, 498, 736, 540, 778, 142, 380, 72, 310, 540, 778, 428, 666, 142, 380, 478, 240, 310, 72, 380, 142, 428, 666, 428, 666, 498, 736, 310, 72, 72, 310, 30, 268, 666, 428, 778, 540, 380, 142, 666, 428, 428, 666, 666, 428, 778, 540, 240, 478, 666, 428, 666, 428, 380, 142, 778, 540, 310, 72, 30, 268, 736, 498, 268, 30, 268, 30, 736, 498, 72, 310, 498, 736, 30, 268, 30, 268, 498, 736, 428, 666, 380, 142, 540, 778, 540, 778, 142, 380, 268, 30, 72, 310, 380, 142, 478, 240, 72, 310, 72, 310, 666, 428, 736, 498, 428, 666, 736, 498, 540, 778, 380, 142, 736, 498, 30, 268}
Number of labels used: 14
[runlim] end:			Sat Jan 24 19:57:04 2026
[runlim] status:		ok
[runlim] result:		0
[runlim] children:		0
[runlim] real:			40.87 seconds
[runlim] time:			67.26 seconds
[runlim] space:			225.8 MB
[runlim] samples:		408
